
Gurobi 6.5.2 (win64) logging started 07/23/16 02:57:59


Gurobi 6.5.2 (win64) logging started 07/23/16 02:57:59

Optimize a model with 20066 rows, 932 columns and 41950 nonzeros
Coefficient statistics:
  Matrix range    [1e+00, 5e+01]
  Objective range [7e+00, 5e+01]
  Bounds range    [1e+00, 1e+00]
  RHS range       [1e+00, 7e+02]
Presolve removed 19881 rows and 39 columns
Presolve time: 0.03s
Presolved: 185 rows, 893 columns, 3919 nonzeros
Variable types: 0 continuous, 893 integer (893 binary)

Root relaxation: objective 7.420000e+02, 318 iterations, 0.00 seconds

    Nodes    |    Current Node    |     Objective Bounds      |     Work
 Expl Unexpl |  Obj  Depth IntInf | Incumbent    BestBd   Gap | It/Node Time

*    0     0               0     742.0000000  742.00000  0.00%     -    0s

Explored 0 nodes (318 simplex iterations) in 0.06 seconds
Thread count was 8 (of 8 available processors)

Optimal solution found (tolerance 1.00e-04)
Best objective 7.420000000000e+02, best bound 7.420000000000e+02, gap 0.0%

Wrote requested result file 'H2\instance17\\Results17SG_Sol4.lp'

